&CONTROL
   calculation      = 'scf'
   restart_mode     = 'from_scratch'
   outdir           = './'
   prefix           = 'MALA'
   pseudo_dir       = './models'
/
&SYSTEM
   ibrav            = 0
   ecutwfc          = 40.0
   ecutrho          = 160.0
   nr1              = 36
   nr2              = 36
   nr3              = 54
   nr1s             = 36
   nr2s             = 36
   nr3s             = 54
   nosym            = .true.
   noinv            = .true.
   occupations      = 'smearing'
   degauss          = 0.0019
   smearing         = 'fermi-dirac'
   ntyp             = 1
   nat              = 16
/
&ELECTRONS
/
&IONS
/
&CELL
/

ATOMIC_SPECIES
Be 9.0121831 Be.pbe-n-rrkjus_psl.1.0.0.UPF

K_POINTS gamma

CELL_PARAMETERS angstrom
4.51965173553559 0.00000000000000 0.00000000000000
-2.25982586776780 3.91413139426721 0.00000000000000
0.00000000000000 0.00000000000000 7.13975712174988

ATOMIC_POSITIONS angstrom
Be 1.7528829726 0.3210037449 2.6776726423 
Be -0.6229700387 1.6360626302 0.8922054666 
Be 1.7528829726 0.3210037449 6.2475512032 
Be -0.6229700387 1.6360626302 4.4620840274 
Be 0.6229700387 2.2780694420 2.6776726423 
Be -1.7528829726 3.5931283274 0.8922054666 
Be 0.6229700387 2.2780694420 6.2475512032 
Be -1.7528829726 3.5931283274 4.4620840274 
Be 4.0127088403 0.3210037449 2.6776726423 
Be 1.6368558291 1.6360626302 0.8922054666 
Be 4.0127088403 0.3210037449 6.2475512032 
Be 1.6368558291 1.6360626302 4.4620840274 
Be 2.8827959064 2.2780694420 2.6776726423 
Be 0.5069428952 3.5931283274 0.8922054666 
Be 2.8827959064 2.2780694420 6.2475512032 
Be 0.5069428952 3.5931283274 4.4620840274 

